917671
218331
402815
947939
631655
180776
610330
900099
319130
20423
738704
787315
152959
28814
258109
774972
34484
98362
719259
858718
996578
309319
967234
144683
921572
644981
93592
661931
676017
556461
508511
55947
175357
767341
253958
633992
209006
533659
824412
11526
79927
556185
313384
43424
242698
879600
662036
814566
160209
407149
150408
211433
541470
109538
42314
999663
971686
613283
471695
392102
700621
616416
241237
807690
16393
498405
193325
893607
199246
566329
208894
911416
523476
610811
691520
272501
155548
832874
602085
348955
82600
746889
723602
683082
397905
364904
856318
372068
368479
824157
69954
713885
714939
632228
972939
166350
444810
873250
197781
293325